
  32    4
  10   10   10   10

   0   0   0   0   0  22 2 5 7 8 10 15 16 17 18 19 20 21 22 23 24 25 26 27 28 29 30 31 
   9   1   1   0   1   1 3 
   7   6   3   1   0   1 4 
   3   1   0   6   1   1 6 
   6   0   6   3   4   3 14 13 11 
   4   2   5   0   2   2 12 9 
   8   3   3   3   0   2 12 9 
   3   0   3   2   3   1 9 
   9   0   4   5   5   1 11 
   8   7   3   5   0   1 11 
  10   3   0   7   4   1 32
   6   4   0   2   3   1 32
   3   4   0   5  10   1 32
   8   6   2   3   0   1 32
   3   0   8   5   3   1 32
   1   2   0   2   2   1 32
   1   0   5   5   5   1 32
   4   4   3   0   3   1 32
   8   6   0   5   6   1 32
   8   4   6   0   1   1 32
   3   0   5   3   3   1 32
   1   0   4   8   5   1 32
   6   6   0   3   1   1 32
   9   6   4   2   0   1 32
   3   2   0   3   4   1 32
   9   5   2   0   8   1 32
   3   5   5   0   6   1 32
   5   3   4   4   0   1 32
   4   3   5   4   0   1 32
  10   0   4   6   9   1 32
   1   5   3   0   3   1 32
   0   0   0   0   0   0 
